\ENCODING=ISO-8859-1
\Problem name: ilog.cplex

Minimize
 obj1: 103894 x1 + 105637 x2 + 90481 x3 + 97580 x4 + 101519 x5 + 91071 x6
       + 101201 x7 + 107158 x8 + 105927 x9 + 101219 x10 + 99176 x11
       + 107255 x12 + 103098 x13 + 94447 x14 + 103779 x15 + 96089 x16
       + 101250 x17 + 109519 x18 + 98174 x19 + 109920 x20 + 96417 x21
       + 96881 x22 + 97549 x23 + 93810 x24 + 101108 x25 + 93214 x26
       + 107860 x27 + 109726 x28 + 99404 x29 + 94566 x30 + 90527 x31
       + 94816 x32 + 107464 x33 + 96066 x34 + 109518 x35 + 93191 x36
       + 109720 x37 + 99526 x38 + 103820 x39 + 105637 x40 + 107907 x41
       + 104144 x42 + 100509 x43 + 93437 x44 + 102594 x45 + 90093 x46
       + 101462 x47 + 94826 x48 + 105045 x49 + 99942 x50 + 98672 x51
       + 94484 x52 + 99164 x53 + 97309 x54 + 109447 x55 + 94856 x56 + 94896 x57
       + 107567 x58 + 99388 x59 + 109894 x60 + 109918 x61 + 93155 x62
       + 107247 x63 + 94618 x64 + 103148 x65 + 92834 x66 + 103180 x67
       + 100288 x68 + 107975 x69 + 105585 x70 + 109762 x71 + 100928 x72
       + 105984 x73 + 99034 x74 + 92925 x75 + 94795 x76 + 101681 x77
       + 98963 x78 + 91661 x79 + 107433 x80 + 96156 x81 + 104134 x82
       + 96176 x83 + 97051 x84 + 106223 x85 + 105065 x86 + 105554 x87
       + 102685 x88 + 94829 x89 + 95423 x90 + 98081 x91 + 100901 x92
       + 108360 x93 + 90326 x94 + 90039 x95 + 107790 x96 + 96999 x97
       + 107143 x98 + 102072 x99 + 99556 x100 + 107231 x101 + 102390 x102
       + 101626 x103 + 90892 x104 + 108874 x105 + 91929 x106 + 99799 x107
       + 107464 x108 + 96050 x109 + 108162 x110 + 108378 x111 + 105544 x112
       + 90503 x113 + 94037 x114 + 106136 x115 + 93407 x116 + 91610 x117
       + 104746 x118 + 100564 x119 + 104747 x120 + 105557 x121 + 93361 x122
       + 109970 x123 + 101745 x124 + 103124 x125 + 101156 x126 + 93355 x127
       + 92456 x128 + 94553 x129 + 91266 x130 + 98164 x131 + 99422 x132
       + 97172 x133 + 91080 x134 + 93581 x135 + 106049 x136 + 104300 x137
       + 106112 x138 + 90129 x139 + 97376 x140 + 102385 x141 + 96104 x142
       + 95149 x143 + 102743 x144 + 107442 x145 + 102714 x146 + 98104 x147
       + 99228 x148 + 101527 x149 + 107374 x150 + 97794 x151 + 94259 x152
       + 98944 x153 + 104155 x154 + 92040 x155 + 106782 x156 + 105250 x157
       + 90175 x158 + 90251 x159 + 91558 x160 + 97550 x161 + 98070 x162
       + 95804 x163 + 103537 x164 + 104267 x165 + 106419 x166 + 90065 x167
       + 90359 x168 + 93988 x169 + 102769 x170 + 97900 x171 + 107438 x172
       + 104512 x173 + 98305 x174 + 104686 x175 + 107679 x176 + 90168 x177
       + 93084 x178 + 99837 x179 + 102450 x180 + 97285 x181 + 93077 x182
       + 106710 x183 + 91096 x184 + 95321 x185 + 106224 x186 + 94227 x187
       + 92512 x188 + 109501 x189 + 96274 x190 + 91698 x191 + 104234 x192
       + 99709 x193 + 90425 x194 + 105035 x195 + 101984 x196 + 109936 x197
       + 99562 x198 + 99933 x199 + 95780 x200 + 97477 x201 + 94318 x202
       + 106854 x203 + 100982 x204 + 108997 x205 + 105891 x206 + 93785 x207
       + 105554 x208 + 90534 x209 + 91866 x210 + 109412 x211 + 104852 x212
       + 93672 x213 + 104502 x214 + 103846 x215 + 103591 x216 + 105589 x217
       + 100839 x218 + 105643 x219 + 108595 x220 + 107467 x221 + 100224 x222
       + 96530 x223 + 106360 x224 + 102691 x225 + 105677 x226 + 106280 x227
       + 92189 x228 + 98616 x229 + 97499 x230 + 105191 x231 + 100876 x232
       + 109414 x233 + 93316 x234 + 90662 x235 + 102498 x236 + 106921 x237
       + 95157 x238 + 109115 x239 + 91131 x240 + 101430 x241 + 91253 x242
       + 104810 x243 + 109176 x244 + 105007 x245 + 107884 x246 + 103069 x247
       + 95447 x248 + 96185 x249 + 94931 x250 + 97684 x251 + 94084 x252
       + 105878 x253 + 109133 x254 + 97043 x255 + 91585 x256 + 98653 x257
       + 95075 x258 + 90401 x259 + 108667 x260 + 105975 x261 + 106988 x262
       + 96303 x263 + 106604 x264 + 96262 x265 + 105344 x266 + 97401 x267
       + 98642 x268 + 108257 x269 + 97437 x270 + 108293 x271 + 106164 x272
       + 106374 x273 + 107510 x274 + 107470 x275 + 98838 x276 + 97700 x277
       + 99776 x278 + 105944 x279 + 103014 x280 + 106351 x281 + 92770 x282
       + 99019 x283 + 94807 x284 + 92592 x285 + 105914 x286 + 102232 x287
       + 92186 x288 + 106516 x289 + 97402 x290 + 107673 x291 + 103792 x292
       + 99055 x293 + 106209 x294 + 92676 x295 + 101343 x296 + 96706 x297
       + 100487 x298 + 109320 x299 + 97140 x300 + 108559 x301 + 95389 x302
       + 97522 x303 + 103695 x304 + 97362 x305 + 108986 x306 + 92322 x307
       + 109996 x308 + 103214 x309 + 90143 x310 + 96858 x311 + 108584 x312
       + 108052 x313 + 107803 x314 + 95196 x315 + 106789 x316 + 90727 x317
       + 103354 x318 + 90924 x319 + 99718 x320 + 99853 x321 + 104984 x322
       + 93028 x323 + 92391 x324 + 106820 x325 + 101938 x326 + 99201 x327
       + 96449 x328 + 100693 x329 + 95688 x330 + 106499 x331 + 105798 x332
       + 92011 x333 + 94937 x334 + 104874 x335 + 98265 x336 + 103470 x337
       + 101816 x338 + 90438 x339 + 93617 x340 + 102058 x341 + 107793 x342
       + 92139 x343 + 102242 x344 + 109416 x345 + 99509 x346 + 98121 x347
       + 103319 x348 + 95031 x349 + 107152 x350 + 90955 x351 + 106018 x352
       + 96917 x353 + 100740 x354 + 95009 x355 + 102269 x356 + 109748 x357
       + 97817 x358 + 101835 x359 + 98444 x360 + 107645 x361 + 103205 x362
       + 96026 x363 + 97431 x364 + 101983 x365 + 92983 x366 + 90724 x367
       + 96571 x368 + 107205 x369 + 91880 x370 + 106861 x371 + 99164 x372
       + 106444 x373 + 94359 x374 + 101792 x375 + 101239 x376 + 96185 x377
       + 102329 x378 + 101322 x379 + 95613 x380 + 97873 x381 + 107697 x382
       + 97128 x383 + 104046 x384 + 95195 x385 + 92063 x386 + 90180 x387
       + 92704 x388 + 107181 x389 + 105569 x390 + 90001 x391 + 106137 x392
       + 99323 x393 + 102232 x394 + 99475 x395 + 90649 x396 + 107587 x397
       + 90070 x398 + 105407 x399 + 109177 x400 + 96734 x401 + 102314 x402
       + 96813 x403 + 99221 x404 + 107935 x405 + 91226 x406 + 108507 x407
       + 94721 x408 + 106325 x409 + 108914 x410 + 103410 x411 + 92276 x412
       + 98951 x413 + 104593 x414 + 91491 x415 + 104198 x416 + 109051 x417
       + 100299 x418 + 90657 x419 + 100704 x420 + 104726 x421 + 97609 x422
       + 94329 x423 + 98435 x424 + 102119 x425 + 107576 x426 + 109615 x427
       + 108875 x428 + 97898 x429 + 100957 x430 + 106148 x431 + 99377 x432
       + 97714 x433 + 94728 x434 + 92795 x435 + 96240 x436 + 94853 x437
       + 90454 x438 + 102338 x439 + 106671 x440 + 96428 x441 + 100253 x442
       + 92647 x443 + 94428 x444 + 93219 x445 + 96867 x446 + 106955 x447
       + 92561 x448 + 103690 x449 + 105824 x450 + 99681 x451 + 106616 x452
       + 105906 x453 + 91125 x454 + 97047 x455 + 104580 x456 + 100591 x457
       + 103733 x458 + 92370 x459 + 91580 x460 + 94137 x461 + 109823 x462
       + 106395 x463 + 109023 x464 + 91565 x465 + 93322 x466 + 91768 x467
       + 104724 x468 + 96982 x469 + 107444 x470 + 93410 x471 + 104232 x472
       + 96517 x473 + 102659 x474 + 109114 x475 + 104106 x476 + 90786 x477
       + 106133 x478 + 102228 x479 + 109642 x480 + 95944 x481 + 95843 x482
       + 105333 x483 + 109836 x484 + 107260 x485 + 103190 x486 + 101523 x487
       + 98368 x488 + 104617 x489 + 104219 x490 + 98160 x491 + 90939 x492
       + 95479 x493 + 101442 x494 + 96945 x495 + 96526 x496 + 97580 x497
       + 95780 x498 + 93659 x499 - 14127 x500 + 404576 x501 + 412938 x502
       + 415097 x503 + 393401 x504 + 439347 x505 + 401608 x506 + 361518 x507
       + 423488 x508 + 407255 x509 + 408386 x510 + 373732 x511 + 402374 x512
       + 400851 x513 + 362746 x514 + 415030 x515 + 423000 x516 + 435203 x517
       + 378161 x518 + 389781 x519 + 385052 x520 + 373216 x521 + 380460 x522
       + 395589 x523 + 385298 x524 + 375625 x525 + 391794 x526 + 408235 x527
       + 364117 x528 + 437087 x529 + 375168 x530 + 419649 x531 + 381686 x532
       + 429262 x533 + 368351 x534 + 402315 x535 + 424833 x536 + 418715 x537
       + 407276 x538 + 394259 x539 + 360666 x540 + 381948 x541 + 417882 x542
       + 406932 x543 + 395656 x544 + 401785 x545 + 361696 x546 + 394041 x547
       + 408922 x548 + 438830 x549 + 465163 x550
Subject To
 c1:   - x5 - x17 - x20 + x22 + x32 - x34 + x43 - x44 - x48  = -1
 c2:   - x55 - x67 - x70 + x72 + x82 - x84 + x93 - x94 - x98  = -1
 c3:   - x105 - x117 - x120 + x122 + x132 - x134 + x143 - x144 - x148  = 0
 c4:   - x155 - x167 - x170 + x172 + x182 - x184 + x193 - x194 - x198  = 0
 c5:   - x205 - x217 - x220 + x222 + x232 - x234 + x243 - x244 - x248  = 0
 c6:   - x255 - x267 - x270 + x272 + x282 - x284 + x293 - x294 - x298  = 0
 c7:   - x305 - x317 - x320 + x322 + x332 - x334 + x343 - x344 - x348  = 0
 c8:   - x355 - x367 - x370 + x372 + x382 - x384 + x393 - x394 - x398  = -1
 c9:   - x405 - x417 - x420 + x422 + x432 - x434 + x443 - x444 - x448  = 0
 c10:  - x455 - x467 - x470 + x472 + x482 - x484 + x493 - x494 - x498  = 0
 c11:  x1 - x2 + x12 + x13 - x15 - x16 - x19 + x30 - x37 + x46 - x47  = 1
 c12:  x51 - x52 + x62 + x63 - x65 - x66 - x69 + x80 - x87 + x96 - x97  = 0
 c13:  x101 - x102 + x112 + x113 - x115 - x116 - x119 + x130 - x137 + x146
       - x147  = 0
 c14:  x151 - x152 + x162 + x163 - x165 - x166 - x169 + x180 - x187 + x196
       - x197  = 0
 c15:  x201 - x202 + x212 + x213 - x215 - x216 - x219 + x230 - x237 + x246
       - x247  = 0
 c16:  x251 - x252 + x262 + x263 - x265 - x266 - x269 + x280 - x287 + x296
       - x297  = 0
 c17:  x301 - x302 + x312 + x313 - x315 - x316 - x319 + x330 - x337 + x346
       - x347  = 0
 c18:  x351 - x352 + x362 + x363 - x365 - x366 - x369 + x380 - x387 + x396
       - x397  = 0
 c19:  x401 - x402 + x412 + x413 - x415 - x416 - x419 + x430 - x437 + x446
       - x447  = 0
 c20:  x451 - x452 + x462 + x463 - x465 - x466 - x469 + x480 - x487 + x496
       - x497  = -1
 c21:  - x1 + x16 + x18 - x21 - x23 + x24 - x25 - x27 - x29 - x36 + x41 - x42
       + x50  = 0
 c22:  - x51 + x66 + x68 - x71 - x73 + x74 - x75 - x77 - x79 - x86 + x91 - x92
       + x100  = 0
 c23:  - x101 + x116 + x118 - x121 - x123 + x124 - x125 - x127 - x129 - x136
       + x141 - x142 + x150  = 0
 c24:  - x151 + x166 + x168 - x171 - x173 + x174 - x175 - x177 - x179 - x186
       + x191 - x192 + x200  = 0
 c25:  - x201 + x216 + x218 - x221 - x223 + x224 - x225 - x227 - x229 - x236
       + x241 - x242 + x250  = -1
 c26:  - x251 + x266 + x268 - x271 - x273 + x274 - x275 - x277 - x279 - x286
       + x291 - x292 + x300  = 0
 c27:  - x301 + x316 + x318 - x321 - x323 + x324 - x325 - x327 - x329 - x336
       + x341 - x342 + x350  = 0
 c28:  - x351 + x366 + x368 - x371 - x373 + x374 - x375 - x377 - x379 - x386
       + x391 - x392 + x400  = 0
 c29:  - x401 + x416 + x418 - x421 - x423 + x424 - x425 - x427 - x429 - x436
       + x441 - x442 + x450  = 0
 c30:  - x451 + x466 + x468 - x471 - x473 + x474 - x475 - x477 - x479 - x486
       + x491 - x492 + x500  = 1
 c31:  - x3 - x4 + x5 + x19 - x22 - x24 + x28 - x31 - x35 + x36 + x39 - x49
        = 0
 c32:  - x53 - x54 + x55 + x69 - x72 - x74 + x78 - x81 - x85 + x86 + x89 - x99
        = 0
 c33:  - x103 - x104 + x105 + x119 - x122 - x124 + x128 - x131 - x135 + x136
       + x139 - x149  = -1
 c34:  - x153 - x154 + x155 + x169 - x172 - x174 + x178 - x181 - x185 + x186
       + x189 - x199  = 0
 c35:  - x203 - x204 + x205 + x219 - x222 - x224 + x228 - x231 - x235 + x236
       + x239 - x249  = 0
 c36:  - x253 - x254 + x255 + x269 - x272 - x274 + x278 - x281 - x285 + x286
       + x289 - x299  = 0
 c37:  - x303 - x304 + x305 + x319 - x322 - x324 + x328 - x331 - x335 + x336
       + x339 - x349  = 0
 c38:  - x353 - x354 + x355 + x369 - x372 - x374 + x378 - x381 - x385 + x386
       + x389 - x399  = 1
 c39:  - x403 - x404 + x405 + x419 - x422 - x424 + x428 - x431 - x435 + x436
       + x439 - x449  = -1
 c40:  - x453 - x454 + x455 + x469 - x472 - x474 + x478 - x481 - x485 + x486
       + x489 - x499  = 0
 c41:  x6 - x8 - x11 - x12 + x14 + x20 + x21 - x32 + x38 - x41 + x47  = 0
 c42:  x56 - x58 - x61 - x62 + x64 + x70 + x71 - x82 + x88 - x91 + x97  = 0
 c43:  x106 - x108 - x111 - x112 + x114 + x120 + x121 - x132 + x138 - x141
       + x147  = 0
 c44:  x156 - x158 - x161 - x162 + x164 + x170 + x171 - x182 + x188 - x191
       + x197  = 0
 c45:  x206 - x208 - x211 - x212 + x214 + x220 + x221 - x232 + x238 - x241
       + x247  = 1
 c46:  x256 - x258 - x261 - x262 + x264 + x270 + x271 - x282 + x288 - x291
       + x297  = 0
 c47:  x306 - x308 - x311 - x312 + x314 + x320 + x321 - x332 + x338 - x341
       + x347  = 1
 c48:  x356 - x358 - x361 - x362 + x364 + x370 + x371 - x382 + x388 - x391
       + x397  = 0
 c49:  x406 - x408 - x411 - x412 + x414 + x420 + x421 - x432 + x438 - x441
       + x447  = 0
 c50:  x456 - x458 - x461 - x462 + x464 + x470 + x471 - x482 + x488 - x491
       + x497  = 0
 c51:  x2 - x9 + x10 + x11 - x13 - x14 - x18 + x26 + x31 + x34 + x42  = 0
 c52:  x52 - x59 + x60 + x61 - x63 - x64 - x68 + x76 + x81 + x84 + x92  = 0
 c53:  x102 - x109 + x110 + x111 - x113 - x114 - x118 + x126 + x131 + x134
       + x142  = 1
 c54:  x152 - x159 + x160 + x161 - x163 - x164 - x168 + x176 + x181 + x184
       + x192  = 0
 c55:  x202 - x209 + x210 + x211 - x213 - x214 - x218 + x226 + x231 + x234
       + x242  = 0
 c56:  x252 - x259 + x260 + x261 - x263 - x264 - x268 + x276 + x281 + x284
       + x292  = 1
 c57:  x302 - x309 + x310 + x311 - x313 - x314 - x318 + x326 + x331 + x334
       + x342  = -1
 c58:  x352 - x359 + x360 + x361 - x363 - x364 - x368 + x376 + x381 + x384
       + x392  = 0
 c59:  x402 - x409 + x410 + x411 - x413 - x414 - x418 + x426 + x431 + x434
       + x442  = 1
 c60:  x452 - x459 + x460 + x461 - x463 - x464 - x468 + x476 + x481 + x484
       + x492  = 0
 c61:  x3 + x27 - x33 + x44 - x50  = 0
 c62:  x53 + x77 - x83 + x94 - x100  = 0
 c63:  x103 + x127 - x133 + x144 - x150  = 0
 c64:  x153 + x177 - x183 + x194 - x200  = 0
 c65:  x203 + x227 - x233 + x244 - x250  = 0
 c66:  x253 + x277 - x283 + x294 - x300  = 0
 c67:  x303 + x327 - x333 + x344 - x350  = 0
 c68:  x353 + x377 - x383 + x394 - x400  = 0
 c69:  x403 + x427 - x433 + x444 - x450  = 0
 c70:  x453 + x477 - x483 + x494 - x500  = 0
 c71:  x8 + x9 + x15 + x23 - x30 + x33 - x38 - x40 - x45 + x49  = 0
 c72:  x58 + x59 + x65 + x73 - x80 + x83 - x88 - x90 - x95 + x99  = 1
 c73:  x108 + x109 + x115 + x123 - x130 + x133 - x138 - x140 - x145 + x149  = 0
 c74:  x158 + x159 + x165 + x173 - x180 + x183 - x188 - x190 - x195 + x199
        = -1
 c75:  x208 + x209 + x215 + x223 - x230 + x233 - x238 - x240 - x245 + x249  = 0
 c76:  x258 + x259 + x265 + x273 - x280 + x283 - x288 - x290 - x295 + x299  = 0
 c77:  x308 + x309 + x315 + x323 - x330 + x333 - x338 - x340 - x345 + x349  = 0
 c78:  x358 + x359 + x365 + x373 - x380 + x383 - x388 - x390 - x395 + x399  = 0
 c79:  x408 + x409 + x415 + x423 - x430 + x433 - x438 - x440 - x445 + x449  = 0
 c80:  x458 + x459 + x465 + x473 - x480 + x483 - x488 - x490 - x495 + x499  = 0
 c81:  x4 - x6 - x7 + x25 - x26 - x39 + x45 + x48  = 0
 c82:  x54 - x56 - x57 + x75 - x76 - x89 + x95 + x98  = 0
 c83:  x104 - x106 - x107 + x125 - x126 - x139 + x145 + x148  = 0
 c84:  x154 - x156 - x157 + x175 - x176 - x189 + x195 + x198  = 1
 c85:  x204 - x206 - x207 + x225 - x226 - x239 + x245 + x248  = 0
 c86:  x254 - x256 - x257 + x275 - x276 - x289 + x295 + x298  = -1
 c87:  x304 - x306 - x307 + x325 - x326 - x339 + x345 + x348  = 0
 c88:  x354 - x356 - x357 + x375 - x376 - x389 + x395 + x398  = 0
 c89:  x404 - x406 - x407 + x425 - x426 - x439 + x445 + x448  = 0
 c90:  x454 - x456 - x457 + x475 - x476 - x489 + x495 + x498  = 0
 c91:  x7 - x10 + x17 - x28 + x29 + x35 + x37 + x40 - x43 - x46  = 0
 c92:  x57 - x60 + x67 - x78 + x79 + x85 + x87 + x90 - x93 - x96  = 0
 c93:  x107 - x110 + x117 - x128 + x129 + x135 + x137 + x140 - x143 - x146  = 0
 c94:  x157 - x160 + x167 - x178 + x179 + x185 + x187 + x190 - x193 - x196  = 0
 c95:  x207 - x210 + x217 - x228 + x229 + x235 + x237 + x240 - x243 - x246  = 0
 c96:  x257 - x260 + x267 - x278 + x279 + x285 + x287 + x290 - x293 - x296  = 0
 c97:  x307 - x310 + x317 - x328 + x329 + x335 + x337 + x340 - x343 - x346  = 0
 c98:  x357 - x360 + x367 - x378 + x379 + x385 + x387 + x390 - x393 - x396  = 0
 c99:  x407 - x410 + x417 - x428 + x429 + x435 + x437 + x440 - x443 - x446  = 0
 c100: x457 - x460 + x467 - x478 + x479 + x485 + x487 + x490 - x493 - x496  = 0
 c101: 4 x1 + 4 x51 + 4 x101 + 4 x151 + 4 x201 + 4 x251 + 4 x301 + 4 x351
       + 4 x401 + 4 x451 - 5 x501 <= 0
 c102: 4 x2 + 4 x52 + 4 x102 + 4 x152 + 4 x202 + 4 x252 + 4 x302 + 4 x352
       + 4 x402 + 4 x452 - 5 x502 <= 0
 c103: 4 x3 + 4 x53 + 4 x103 + 4 x153 + 4 x203 + 4 x253 + 4 x303 + 4 x353
       + 4 x403 + 4 x453 - 5 x503 <= 0
 c104: 4 x4 + 4 x54 + 4 x104 + 4 x154 + 4 x204 + 4 x254 + 4 x304 + 4 x354
       + 4 x404 + 4 x454 - 5 x504 <= 0
 c105: 4 x5 + 4 x55 + 4 x105 + 4 x155 + 4 x205 + 4 x255 + 4 x305 + 4 x355
       + 4 x405 + 4 x455 - 5 x505 <= 0
 c106: 4 x6 + 4 x56 + 4 x106 + 4 x156 + 4 x206 + 4 x256 + 4 x306 + 4 x356
       + 4 x406 + 4 x456 - 5 x506 <= 0
 c107: 4 x7 + 4 x57 + 4 x107 + 4 x157 + 4 x207 + 4 x257 + 4 x307 + 4 x357
       + 4 x407 + 4 x457 - 5 x507 <= 0
 c108: 4 x8 + 4 x58 + 4 x108 + 4 x158 + 4 x208 + 4 x258 + 4 x308 + 4 x358
       + 4 x408 + 4 x458 - 5 x508 <= 0
 c109: 4 x9 + 4 x59 + 4 x109 + 4 x159 + 4 x209 + 4 x259 + 4 x309 + 4 x359
       + 4 x409 + 4 x459 - 5 x509 <= 0
 c110: 4 x10 + 4 x60 + 4 x110 + 4 x160 + 4 x210 + 4 x260 + 4 x310 + 4 x360
       + 4 x410 + 4 x460 - 5 x510 <= 0
 c111: 4 x11 + 4 x61 + 4 x111 + 4 x161 + 4 x211 + 4 x261 + 4 x311 + 4 x361
       + 4 x411 + 4 x461 - 5 x511 <= 0
 c112: 4 x12 + 4 x62 + 4 x112 + 4 x162 + 4 x212 + 4 x262 + 4 x312 + 4 x362
       + 4 x412 + 4 x462 - 5 x512 <= 0
 c113: 4 x13 + 4 x63 + 4 x113 + 4 x163 + 4 x213 + 4 x263 + 4 x313 + 4 x363
       + 4 x413 + 4 x463 - 5 x513 <= 0
 c114: 4 x14 + 4 x64 + 4 x114 + 4 x164 + 4 x214 + 4 x264 + 4 x314 + 4 x364
       + 4 x414 + 4 x464 - 5 x514 <= 0
 c115: 4 x15 + 4 x65 + 4 x115 + 4 x165 + 4 x215 + 4 x265 + 4 x315 + 4 x365
       + 4 x415 + 4 x465 - 5 x515 <= 0
 c116: 4 x16 + 4 x66 + 4 x116 + 4 x166 + 4 x216 + 4 x266 + 4 x316 + 4 x366
       + 4 x416 + 4 x466 - 5 x516 <= 0
 c117: 4 x17 + 4 x67 + 4 x117 + 4 x167 + 4 x217 + 4 x267 + 4 x317 + 4 x367
       + 4 x417 + 4 x467 - 5 x517 <= 0
 c118: 4 x18 + 4 x68 + 4 x118 + 4 x168 + 4 x218 + 4 x268 + 4 x318 + 4 x368
       + 4 x418 + 4 x468 - 5 x518 <= 0
 c119: 4 x19 + 4 x69 + 4 x119 + 4 x169 + 4 x219 + 4 x269 + 4 x319 + 4 x369
       + 4 x419 + 4 x469 - 5 x519 <= 0
 c120: 4 x20 + 4 x70 + 4 x120 + 4 x170 + 4 x220 + 4 x270 + 4 x320 + 4 x370
       + 4 x420 + 4 x470 - 5 x520 <= 0
 c121: 4 x21 + 4 x71 + 4 x121 + 4 x171 + 4 x221 + 4 x271 + 4 x321 + 4 x371
       + 4 x421 + 4 x471 - 5 x521 <= 0
 c122: 4 x22 + 4 x72 + 4 x122 + 4 x172 + 4 x222 + 4 x272 + 4 x322 + 4 x372
       + 4 x422 + 4 x472 - 5 x522 <= 0
 c123: 4 x23 + 4 x73 + 4 x123 + 4 x173 + 4 x223 + 4 x273 + 4 x323 + 4 x373
       + 4 x423 + 4 x473 - 5 x523 <= 0
 c124: 4 x24 + 4 x74 + 4 x124 + 4 x174 + 4 x224 + 4 x274 + 4 x324 + 4 x374
       + 4 x424 + 4 x474 - 5 x524 <= 0
 c125: 4 x25 + 4 x75 + 4 x125 + 4 x175 + 4 x225 + 4 x275 + 4 x325 + 4 x375
       + 4 x425 + 4 x475 - 5 x525 <= 0
 c126: 4 x26 + 4 x76 + 4 x126 + 4 x176 + 4 x226 + 4 x276 + 4 x326 + 4 x376
       + 4 x426 + 4 x476 - 5 x526 <= 0
 c127: 4 x27 + 4 x77 + 4 x127 + 4 x177 + 4 x227 + 4 x277 + 4 x327 + 4 x377
       + 4 x427 + 4 x477 - 5 x527 <= 0
 c128: 4 x28 + 4 x78 + 4 x128 + 4 x178 + 4 x228 + 4 x278 + 4 x328 + 4 x378
       + 4 x428 + 4 x478 - 5 x528 <= 0
 c129: 4 x29 + 4 x79 + 4 x129 + 4 x179 + 4 x229 + 4 x279 + 4 x329 + 4 x379
       + 4 x429 + 4 x479 - 5 x529 <= 0
 c130: 4 x30 + 4 x80 + 4 x130 + 4 x180 + 4 x230 + 4 x280 + 4 x330 + 4 x380
       + 4 x430 + 4 x480 - 5 x530 <= 0
 c131: 4 x31 + 4 x81 + 4 x131 + 4 x181 + 4 x231 + 4 x281 + 4 x331 + 4 x381
       + 4 x431 + 4 x481 - 5 x531 <= 0
 c132: 4 x32 + 4 x82 + 4 x132 + 4 x182 + 4 x232 + 4 x282 + 4 x332 + 4 x382
       + 4 x432 + 4 x482 - 5 x532 <= 0
 c133: 4 x33 + 4 x83 + 4 x133 + 4 x183 + 4 x233 + 4 x283 + 4 x333 + 4 x383
       + 4 x433 + 4 x483 - 5 x533 <= 0
 c134: 4 x34 + 4 x84 + 4 x134 + 4 x184 + 4 x234 + 4 x284 + 4 x334 + 4 x384
       + 4 x434 + 4 x484 - 5 x534 <= 0
 c135: 4 x35 + 4 x85 + 4 x135 + 4 x185 + 4 x235 + 4 x285 + 4 x335 + 4 x385
       + 4 x435 + 4 x485 - 5 x535 <= 0
 c136: 4 x36 + 4 x86 + 4 x136 + 4 x186 + 4 x236 + 4 x286 + 4 x336 + 4 x386
       + 4 x436 + 4 x486 - 5 x536 <= 0
 c137: 4 x37 + 4 x87 + 4 x137 + 4 x187 + 4 x237 + 4 x287 + 4 x337 + 4 x387
       + 4 x437 + 4 x487 - 5 x537 <= 0
 c138: 4 x38 + 4 x88 + 4 x138 + 4 x188 + 4 x238 + 4 x288 + 4 x338 + 4 x388
       + 4 x438 + 4 x488 - 5 x538 <= 0
 c139: 4 x39 + 4 x89 + 4 x139 + 4 x189 + 4 x239 + 4 x289 + 4 x339 + 4 x389
       + 4 x439 + 4 x489 - 5 x539 <= 0
 c140: 4 x40 + 4 x90 + 4 x140 + 4 x190 + 4 x240 + 4 x290 + 4 x340 + 4 x390
       + 4 x440 + 4 x490 - 5 x540 <= 0
 c141: 4 x41 + 4 x91 + 4 x141 + 4 x191 + 4 x241 + 4 x291 + 4 x341 + 4 x391
       + 4 x441 + 4 x491 - 5 x541 <= 0
 c142: 4 x42 + 4 x92 + 4 x142 + 4 x192 + 4 x242 + 4 x292 + 4 x342 + 4 x392
       + 4 x442 + 4 x492 - 5 x542 <= 0
 c143: 4 x43 + 4 x93 + 4 x143 + 4 x193 + 4 x243 + 4 x293 + 4 x343 + 4 x393
       + 4 x443 + 4 x493 - 5 x543 <= 0
 c144: 4 x44 + 4 x94 + 4 x144 + 4 x194 + 4 x244 + 4 x294 + 4 x344 + 4 x394
       + 4 x444 + 4 x494 - 5 x544 <= 0
 c145: 4 x45 + 4 x95 + 4 x145 + 4 x195 + 4 x245 + 4 x295 + 4 x345 + 4 x395
       + 4 x445 + 4 x495 - 5 x545 <= 0
 c146: 4 x46 + 4 x96 + 4 x146 + 4 x196 + 4 x246 + 4 x296 + 4 x346 + 4 x396
       + 4 x446 + 4 x496 - 5 x546 <= 0
 c147: 4 x47 + 4 x97 + 4 x147 + 4 x197 + 4 x247 + 4 x297 + 4 x347 + 4 x397
       + 4 x447 + 4 x497 - 5 x547 <= 0
 c148: 4 x48 + 4 x98 + 4 x148 + 4 x198 + 4 x248 + 4 x298 + 4 x348 + 4 x398
       + 4 x448 + 4 x498 - 5 x548 <= 0
 c149: 4 x49 + 4 x99 + 4 x149 + 4 x199 + 4 x249 + 4 x299 + 4 x349 + 4 x399
       + 4 x449 + 4 x499 - 5 x549 <= 0
 c150: 4 x50 + 4 x100 + 4 x150 + 4 x200 + 4 x250 + 4 x300 + 4 x350 + 4 x400
       + 4 x450 + 4 x500 - 5 x550 <= 0
Bounds
 0 <= x1 <= 1
 0 <= x2 <= 1
 0 <= x3 <= 1
 0 <= x4 <= 1
 0 <= x5 <= 1
 0 <= x6 <= 1
 0 <= x7 <= 1
 0 <= x8 <= 1
 0 <= x9 <= 1
 0 <= x10 <= 1
 0 <= x11 <= 1
 0 <= x12 <= 1
 0 <= x13 <= 1
 0 <= x14 <= 1
 0 <= x15 <= 1
 0 <= x16 <= 1
 0 <= x17 <= 1
 0 <= x18 <= 1
 0 <= x19 <= 1
 0 <= x20 <= 1
 0 <= x21 <= 1
 0 <= x22 <= 1
 0 <= x23 <= 1
 0 <= x24 <= 1
 0 <= x25 <= 1
 0 <= x26 <= 1
 0 <= x27 <= 1
 0 <= x28 <= 1
 0 <= x29 <= 1
 0 <= x30 <= 1
 0 <= x31 <= 1
 0 <= x32 <= 1
 0 <= x33 <= 1
 0 <= x34 <= 1
 0 <= x35 <= 1
 0 <= x36 <= 1
 0 <= x37 <= 1
 0 <= x38 <= 1
 0 <= x39 <= 1
 0 <= x40 <= 1
 0 <= x41 <= 1
 0 <= x42 <= 1
 0 <= x43 <= 1
 0 <= x44 <= 1
 0 <= x45 <= 1
 0 <= x46 <= 1
 0 <= x47 <= 1
 0 <= x48 <= 1
 0 <= x49 <= 1
 0 <= x50 <= 1
 0 <= x51 <= 1
 0 <= x52 <= 1
 0 <= x53 <= 1
 0 <= x54 <= 1
 0 <= x55 <= 1
 0 <= x56 <= 1
 0 <= x57 <= 1
 0 <= x58 <= 1
 0 <= x59 <= 1
 0 <= x60 <= 1
 0 <= x61 <= 1
 0 <= x62 <= 1
 0 <= x63 <= 1
 0 <= x64 <= 1
 0 <= x65 <= 1
 0 <= x66 <= 1
 0 <= x67 <= 1
 0 <= x68 <= 1
 0 <= x69 <= 1
 0 <= x70 <= 1
 0 <= x71 <= 1
 0 <= x72 <= 1
 0 <= x73 <= 1
 0 <= x74 <= 1
 0 <= x75 <= 1
 0 <= x76 <= 1
 0 <= x77 <= 1
 0 <= x78 <= 1
 0 <= x79 <= 1
 0 <= x80 <= 1
 0 <= x81 <= 1
 0 <= x82 <= 1
 0 <= x83 <= 1
 0 <= x84 <= 1
 0 <= x85 <= 1
 0 <= x86 <= 1
 0 <= x87 <= 1
 0 <= x88 <= 1
 0 <= x89 <= 1
 0 <= x90 <= 1
 0 <= x91 <= 1
 0 <= x92 <= 1
 0 <= x93 <= 1
 0 <= x94 <= 1
 0 <= x95 <= 1
 0 <= x96 <= 1
 0 <= x97 <= 1
 0 <= x98 <= 1
 0 <= x99 <= 1
 0 <= x100 <= 1
 0 <= x101 <= 1
 0 <= x102 <= 1
 0 <= x103 <= 1
 0 <= x104 <= 1
 0 <= x105 <= 1
 0 <= x106 <= 1
 0 <= x107 <= 1
 0 <= x108 <= 1
 0 <= x109 <= 1
 0 <= x110 <= 1
 0 <= x111 <= 1
 0 <= x112 <= 1
 0 <= x113 <= 1
 0 <= x114 <= 1
 0 <= x115 <= 1
 0 <= x116 <= 1
 0 <= x117 <= 1
 0 <= x118 <= 1
 0 <= x119 <= 1
 0 <= x120 <= 1
 0 <= x121 <= 1
 0 <= x122 <= 1
 0 <= x123 <= 1
 0 <= x124 <= 1
 0 <= x125 <= 1
 0 <= x126 <= 1
 0 <= x127 <= 1
 0 <= x128 <= 1
 0 <= x129 <= 1
 0 <= x130 <= 1
 0 <= x131 <= 1
 0 <= x132 <= 1
 0 <= x133 <= 1
 0 <= x134 <= 1
 0 <= x135 <= 1
 0 <= x136 <= 1
 0 <= x137 <= 1
 0 <= x138 <= 1
 0 <= x139 <= 1
 0 <= x140 <= 1
 0 <= x141 <= 1
 0 <= x142 <= 1
 0 <= x143 <= 1
 0 <= x144 <= 1
 0 <= x145 <= 1
 0 <= x146 <= 1
 0 <= x147 <= 1
 0 <= x148 <= 1
 0 <= x149 <= 1
 0 <= x150 <= 1
 0 <= x151 <= 1
 0 <= x152 <= 1
 0 <= x153 <= 1
 0 <= x154 <= 1
 0 <= x155 <= 1
 0 <= x156 <= 1
 0 <= x157 <= 1
 0 <= x158 <= 1
 0 <= x159 <= 1
 0 <= x160 <= 1
 0 <= x161 <= 1
 0 <= x162 <= 1
 0 <= x163 <= 1
 0 <= x164 <= 1
 0 <= x165 <= 1
 0 <= x166 <= 1
 0 <= x167 <= 1
 0 <= x168 <= 1
 0 <= x169 <= 1
 0 <= x170 <= 1
 0 <= x171 <= 1
 0 <= x172 <= 1
 0 <= x173 <= 1
 0 <= x174 <= 1
 0 <= x175 <= 1
 0 <= x176 <= 1
 0 <= x177 <= 1
 0 <= x178 <= 1
 0 <= x179 <= 1
 0 <= x180 <= 1
 0 <= x181 <= 1
 0 <= x182 <= 1
 0 <= x183 <= 1
 0 <= x184 <= 1
 0 <= x185 <= 1
 0 <= x186 <= 1
 0 <= x187 <= 1
 0 <= x188 <= 1
 0 <= x189 <= 1
 0 <= x190 <= 1
 0 <= x191 <= 1
 0 <= x192 <= 1
 0 <= x193 <= 1
 0 <= x194 <= 1
 0 <= x195 <= 1
 0 <= x196 <= 1
 0 <= x197 <= 1
 0 <= x198 <= 1
 0 <= x199 <= 1
 0 <= x200 <= 1
 0 <= x201 <= 1
 0 <= x202 <= 1
 0 <= x203 <= 1
 0 <= x204 <= 1
 0 <= x205 <= 1
 0 <= x206 <= 1
 0 <= x207 <= 1
 0 <= x208 <= 1
 0 <= x209 <= 1
 0 <= x210 <= 1
 0 <= x211 <= 1
 0 <= x212 <= 1
 0 <= x213 <= 1
 0 <= x214 <= 1
 0 <= x215 <= 1
 0 <= x216 <= 1
 0 <= x217 <= 1
 0 <= x218 <= 1
 0 <= x219 <= 1
 0 <= x220 <= 1
 0 <= x221 <= 1
 0 <= x222 <= 1
 0 <= x223 <= 1
 0 <= x224 <= 1
 0 <= x225 <= 1
 0 <= x226 <= 1
 0 <= x227 <= 1
 0 <= x228 <= 1
 0 <= x229 <= 1
 0 <= x230 <= 1
 0 <= x231 <= 1
 0 <= x232 <= 1
 0 <= x233 <= 1
 0 <= x234 <= 1
 0 <= x235 <= 1
 0 <= x236 <= 1
 0 <= x237 <= 1
 0 <= x238 <= 1
 0 <= x239 <= 1
 0 <= x240 <= 1
 0 <= x241 <= 1
 0 <= x242 <= 1
 0 <= x243 <= 1
 0 <= x244 <= 1
 0 <= x245 <= 1
 0 <= x246 <= 1
 0 <= x247 <= 1
 0 <= x248 <= 1
 0 <= x249 <= 1
 0 <= x250 <= 1
 0 <= x251 <= 1
 0 <= x252 <= 1
 0 <= x253 <= 1
 0 <= x254 <= 1
 0 <= x255 <= 1
 0 <= x256 <= 1
 0 <= x257 <= 1
 0 <= x258 <= 1
 0 <= x259 <= 1
 0 <= x260 <= 1
 0 <= x261 <= 1
 0 <= x262 <= 1
 0 <= x263 <= 1
 0 <= x264 <= 1
 0 <= x265 <= 1
 0 <= x266 <= 1
 0 <= x267 <= 1
 0 <= x268 <= 1
 0 <= x269 <= 1
 0 <= x270 <= 1
 0 <= x271 <= 1
 0 <= x272 <= 1
 0 <= x273 <= 1
 0 <= x274 <= 1
 0 <= x275 <= 1
 0 <= x276 <= 1
 0 <= x277 <= 1
 0 <= x278 <= 1
 0 <= x279 <= 1
 0 <= x280 <= 1
 0 <= x281 <= 1
 0 <= x282 <= 1
 0 <= x283 <= 1
 0 <= x284 <= 1
 0 <= x285 <= 1
 0 <= x286 <= 1
 0 <= x287 <= 1
 0 <= x288 <= 1
 0 <= x289 <= 1
 0 <= x290 <= 1
 0 <= x291 <= 1
 0 <= x292 <= 1
 0 <= x293 <= 1
 0 <= x294 <= 1
 0 <= x295 <= 1
 0 <= x296 <= 1
 0 <= x297 <= 1
 0 <= x298 <= 1
 0 <= x299 <= 1
 0 <= x300 <= 1
 0 <= x301 <= 1
 0 <= x302 <= 1
 0 <= x303 <= 1
 0 <= x304 <= 1
 0 <= x305 <= 1
 0 <= x306 <= 1
 0 <= x307 <= 1
 0 <= x308 <= 1
 0 <= x309 <= 1
 0 <= x310 <= 1
 0 <= x311 <= 1
 0 <= x312 <= 1
 0 <= x313 <= 1
 0 <= x314 <= 1
 0 <= x315 <= 1
 0 <= x316 <= 1
 0 <= x317 <= 1
 0 <= x318 <= 1
 0 <= x319 <= 1
 0 <= x320 <= 1
 0 <= x321 <= 1
 0 <= x322 <= 1
 0 <= x323 <= 1
 0 <= x324 <= 1
 0 <= x325 <= 1
 0 <= x326 <= 1
 0 <= x327 <= 1
 0 <= x328 <= 1
 0 <= x329 <= 1
 0 <= x330 <= 1
 0 <= x331 <= 1
 0 <= x332 <= 1
 0 <= x333 <= 1
 0 <= x334 <= 1
 0 <= x335 <= 1
 0 <= x336 <= 1
 0 <= x337 <= 1
 0 <= x338 <= 1
 0 <= x339 <= 1
 0 <= x340 <= 1
 0 <= x341 <= 1
 0 <= x342 <= 1
 0 <= x343 <= 1
 0 <= x344 <= 1
 0 <= x345 <= 1
 0 <= x346 <= 1
 0 <= x347 <= 1
 0 <= x348 <= 1
 0 <= x349 <= 1
 0 <= x350 <= 1
 0 <= x351 <= 1
 0 <= x352 <= 1
 0 <= x353 <= 1
 0 <= x354 <= 1
 0 <= x355 <= 1
 0 <= x356 <= 1
 0 <= x357 <= 1
 0 <= x358 <= 1
 0 <= x359 <= 1
 0 <= x360 <= 1
 0 <= x361 <= 1
 0 <= x362 <= 1
 0 <= x363 <= 1
 0 <= x364 <= 1
 0 <= x365 <= 1
 0 <= x366 <= 1
 0 <= x367 <= 1
 0 <= x368 <= 1
 0 <= x369 <= 1
 0 <= x370 <= 1
 0 <= x371 <= 1
 0 <= x372 <= 1
 0 <= x373 <= 1
 0 <= x374 <= 1
 0 <= x375 <= 1
 0 <= x376 <= 1
 0 <= x377 <= 1
 0 <= x378 <= 1
 0 <= x379 <= 1
 0 <= x380 <= 1
 0 <= x381 <= 1
 0 <= x382 <= 1
 0 <= x383 <= 1
 0 <= x384 <= 1
 0 <= x385 <= 1
 0 <= x386 <= 1
 0 <= x387 <= 1
 0 <= x388 <= 1
 0 <= x389 <= 1
 0 <= x390 <= 1
 0 <= x391 <= 1
 0 <= x392 <= 1
 0 <= x393 <= 1
 0 <= x394 <= 1
 0 <= x395 <= 1
 0 <= x396 <= 1
 0 <= x397 <= 1
 0 <= x398 <= 1
 0 <= x399 <= 1
 0 <= x400 <= 1
 0 <= x401 <= 1
 0 <= x402 <= 1
 0 <= x403 <= 1
 0 <= x404 <= 1
 0 <= x405 <= 1
 0 <= x406 <= 1
 0 <= x407 <= 1
 0 <= x408 <= 1
 0 <= x409 <= 1
 0 <= x410 <= 1
 0 <= x411 <= 1
 0 <= x412 <= 1
 0 <= x413 <= 1
 0 <= x414 <= 1
 0 <= x415 <= 1
 0 <= x416 <= 1
 0 <= x417 <= 1
 0 <= x418 <= 1
 0 <= x419 <= 1
 0 <= x420 <= 1
 0 <= x421 <= 1
 0 <= x422 <= 1
 0 <= x423 <= 1
 0 <= x424 <= 1
 0 <= x425 <= 1
 0 <= x426 <= 1
 0 <= x427 <= 1
 0 <= x428 <= 1
 0 <= x429 <= 1
 0 <= x430 <= 1
 0 <= x431 <= 1
 0 <= x432 <= 1
 0 <= x433 <= 1
 0 <= x434 <= 1
 0 <= x435 <= 1
 0 <= x436 <= 1
 0 <= x437 <= 1
 0 <= x438 <= 1
 0 <= x439 <= 1
 0 <= x440 <= 1
 0 <= x441 <= 1
 0 <= x442 <= 1
 0 <= x443 <= 1
 0 <= x444 <= 1
 0 <= x445 <= 1
 0 <= x446 <= 1
 0 <= x447 <= 1
 0 <= x448 <= 1
 0 <= x449 <= 1
 0 <= x450 <= 1
 0 <= x451 <= 1
 0 <= x452 <= 1
 0 <= x453 <= 1
 0 <= x454 <= 1
 0 <= x455 <= 1
 0 <= x456 <= 1
 0 <= x457 <= 1
 0 <= x458 <= 1
 0 <= x459 <= 1
 0 <= x460 <= 1
 0 <= x461 <= 1
 0 <= x462 <= 1
 0 <= x463 <= 1
 0 <= x464 <= 1
 0 <= x465 <= 1
 0 <= x466 <= 1
 0 <= x467 <= 1
 0 <= x468 <= 1
 0 <= x469 <= 1
 0 <= x470 <= 1
 0 <= x471 <= 1
 0 <= x472 <= 1
 0 <= x473 <= 1
 0 <= x474 <= 1
 0 <= x475 <= 1
 0 <= x476 <= 1
 0 <= x477 <= 1
 0 <= x478 <= 1
 0 <= x479 <= 1
 0 <= x480 <= 1
 0 <= x481 <= 1
 0 <= x482 <= 1
 0 <= x483 <= 1
 0 <= x484 <= 1
 0 <= x485 <= 1
 0 <= x486 <= 1
 0 <= x487 <= 1
 0 <= x488 <= 1
 0 <= x489 <= 1
 0 <= x490 <= 1
 0 <= x491 <= 1
 0 <= x492 <= 1
 0 <= x493 <= 1
 0 <= x494 <= 1
 0 <= x495 <= 1
 0 <= x496 <= 1
 0 <= x497 <= 1
 0 <= x498 <= 1
 0 <= x499 <= 1
 0 <= x500 <= 1
 0 <= x501 <= 1
 0 <= x502 <= 1
 0 <= x503 <= 1
 0 <= x504 <= 1
 0 <= x505 <= 1
 0 <= x506 <= 1
 0 <= x507 <= 1
 0 <= x508 <= 1
 0 <= x509 <= 1
 0 <= x510 <= 1
 0 <= x511 <= 1
 0 <= x512 <= 1
 0 <= x513 <= 1
 0 <= x514 <= 1
 0 <= x515 <= 1
 0 <= x516 <= 1
 0 <= x517 <= 1
 0 <= x518 <= 1
 0 <= x519 <= 1
 0 <= x520 <= 1
 0 <= x521 <= 1
 0 <= x522 <= 1
 0 <= x523 <= 1
 0 <= x524 <= 1
 0 <= x525 <= 1
 0 <= x526 <= 1
 0 <= x527 <= 1
 0 <= x528 <= 1
 0 <= x529 <= 1
 0 <= x530 <= 1
 0 <= x531 <= 1
 0 <= x532 <= 1
 0 <= x533 <= 1
 0 <= x534 <= 1
 0 <= x535 <= 1
 0 <= x536 <= 1
 0 <= x537 <= 1
 0 <= x538 <= 1
 0 <= x539 <= 1
 0 <= x540 <= 1
 0 <= x541 <= 1
 0 <= x542 <= 1
 0 <= x543 <= 1
 0 <= x544 <= 1
 0 <= x545 <= 1
 0 <= x546 <= 1
 0 <= x547 <= 1
 0 <= x548 <= 1
 0 <= x549 <= 1
 0 <= x550 <= 1
Binaries
 x501  x502  x503  x504  x505  x506  x507  x508  x509  x510  x511  x512  x513 
 x514  x515  x516  x517  x518  x519  x520  x521  x522  x523  x524  x525  x526 
 x527  x528  x529  x530  x531  x532  x533  x534  x535  x536  x537  x538  x539 
 x540  x541  x542  x543  x544  x545  x546  x547  x548  x549  x550 
End
